# opt b3lyp/6-31g

 C                 -0.22614302    2.39451517   -1.73482177
 C                  0.42906000    1.17993641   -1.49104030
 C                 -0.13373182    0.24415714   -0.61268685
 C                  0.58627325   -1.09054322   -0.34479233
 C                 -1.35172812    0.52295534    0.02188260
 C                 -2.00693101    1.73753426   -0.22189860
 C                 -3.34538933    2.04390583    0.47542919
 C                 -1.44413745    2.67331492   -1.10024925
 H                  1.45849111    3.33486024   -2.67969852
 H                  0.03807913    3.23828034   -3.69269839
 H                  0.11005938    4.40987721   -2.39838535
 H                  1.35902538    0.96706616   -1.97555111
 H                  1.64271356   -0.95183298   -0.44273807
 H                  0.36080338   -1.42476424    0.64634822
 H                  0.25556612   -1.82238916   -1.05185266
 H                 -3.15791779    2.53758611    1.40603854
 H                 -3.93736911    2.67747414   -0.15150877
 H                 -1.78143226   -0.19153291    0.69252488
 C                 -4.10165839    0.72788231    0.73569657
 C                 -4.98715469    0.22625566   -0.22772904
 C                 -3.90436697    0.03192755    1.93596518
 C                 -5.67536069   -0.97132504    0.00911471
 C                 -4.59257584   -1.16565110    2.17281063
 C                 -5.47807319   -1.66727708    1.20938564
 H                 -6.35145474   -1.35432956   -0.72648326
 H                 -4.44194194   -1.69702630    3.08924383
 H                 -6.00353605   -2.58165493    1.39022240
 F                 -5.17720598    0.89668190   -1.38397695
 F                 -3.05134859    0.51515583    2.86405469
 C                 -2.16413901    4.00801853   -1.36813737
 C                 -1.60694725    4.94839911   -2.24539957
 C                 -3.37674277    4.29198339   -0.73988390
 H                 -0.67697909    4.73540782   -2.72985181
 C                 -4.00165054    5.51048078   -1.00540321
 H                 -3.81945399    3.58799874   -0.06659923
 C                 -3.39931232    6.41394603   -1.89157857
 H                 -4.93243604    5.75323297   -0.53677792
 H                 -3.87458987    7.34997066   -2.09862729
 N                 -2.23002842    6.11544976   -2.48382941
 C                 -1.62181991    7.08260443   -3.40881280
 H                 -1.97171969    6.89454053   -4.40234287
 H                 -1.89409464    8.07529923   -3.11671078
 H                 -0.55693578    6.98195693   -3.38067192

