# opt b3lyp/6-31g

[No Title]

1 1
 C                -11.64249458    7.37878574   -4.20807265
 C                -10.33411023    7.37360645   -3.70605225
 C                 -9.50818068    8.49053351   -3.89108057
 C                 -9.99063638    9.61264209   -4.57812567
 C                -11.29902122    9.61782083   -5.08014734
 C                -12.12494941    8.50089205   -4.89512135
 H                 -9.96574552    6.51685352   -3.18147450
 H                -13.12392931    8.50484534   -5.27842721
 C                -15.51067920    9.96022234   -5.23690200
 C                -14.12833703    9.82588352   -5.42518320
 C                -13.35048063   10.96631665   -5.62542756
 C                -13.97577166   12.21319731   -5.63224292
 C                -15.36186350   12.28888051   -5.43887718
 H                -16.11181306    9.08854565   -5.08289634
 H                -13.67379476    8.85727849   -5.41540514
 H                -13.40241253   13.10382227   -5.78372417
 H                -15.84632411   13.24291357   -5.44322728
 C                 -9.08301763   10.84003277   -4.78144924
 C                 -7.81636194   10.81735865   -4.29967879
 C                 -7.56200592   13.24396907   -4.71954569
 C                 -8.82337175   13.31805633   -5.20994127
 C                 -9.62298783   12.05416583   -5.54544067
 H                 -7.36056492    9.87100812   -4.09579250
 H                 -6.91808509   14.09183065   -4.82630234
 H                 -9.26388487   14.27776168   -5.38260758
 H                 -9.51249086   11.86158358   -6.59215110
 N                -16.08831558   11.17401747   -5.24800025
 N                 -7.04877563   12.04826389   -4.01994120
 C                -11.82919822   10.85090456   -5.83514179
 H                -11.34979966   11.73140196   -5.46124207
 H                -11.61997260   10.74696934   -6.87932708
 C                -12.55011078    6.15139432   -4.00474304
 H                -11.94973678    5.26662397   -3.96433505
 H                -13.09232918    6.25665340   -3.08832646
 H                -13.23888247    6.07810726   -4.82029360
 C                 -8.07039379    8.48484028   -3.33941339
 H                 -8.02703169    7.87239256   -2.46309861
 H                 -7.40538861    8.09399855   -4.08097298
 H                 -7.77977968    9.48417419   -3.09086701
 C                 -5.64784925   11.83386847   -4.41024869
 H                 -5.59542918   11.64632164   -5.46237907
 H                 -5.07443155   12.70591665   -4.17440137
 H                 -5.25396509   10.99331036   -3.87806682
 C                -17.54044794   11.28418014   -5.04781046
 H                -17.76571379   12.21813818   -4.57677178
 H                -18.03589088   11.23370009   -5.99485236
 H                -17.87673357   10.48088840   -4.42609167
 H                -10.65686077   12.20266999   -5.31316226

