# opt b3lyp/6-31g

C 0   -2.280217   -2.596229    0.694826
C 0   -1.745517   -3.840829    1.027325
C 0   -2.593917   -4.911029    1.311125
C 0   -3.976917   -4.736529    1.262525
C 0   -4.511617   -3.491929    0.930125
C 0   -3.663216   -2.421729    0.646225
C 0   -4.175698   -1.228683    0.327524
C 0   -4.096644   -0.763871   -0.985180
C 0   -4.631211    0.480870   -1.317612
C 0   -4.546286    0.979858   -2.726444
C 0   -3.835115   -0.053720   -3.589857
C 0   -5.950858    1.212314   -3.267434
C 0   -3.766870    2.287988   -2.755327
C 0   -5.244884    1.260637   -0.337373
O 0   -5.764182    2.469786   -0.660351
C 0   -5.324027    0.795800    0.975291
C 0   -5.982736    1.632697    2.027296
C 0   -6.477111    2.932794    1.406919
C 0   -7.162936    0.870861    2.615738
C 0   -4.978805    1.945712    3.128965
C 0   -4.789372   -0.448915    1.307763
H 0   -1.675898    1.672470   -0.441881
H 0   -0.428987    0.981619    0.685117
H 0   -0.425691    0.513415   -1.071626
H 0   -3.070239   -0.239814    0.065636
H 0   -0.376355   -1.708025    0.461001
H 0   -0.654829   -3.978397    1.065740
H 0   -2.172284   -5.892616    1.573260
H 0   -4.645942   -5.580511    1.486357
H 0   -5.602306   -3.354332    0.891861
H 0   -3.612758   -1.378884   -1.758235
H 0   -3.771975    0.317272   -4.637305
H 0   -2.808662   -0.223598   -3.194504
H 0   -4.404708   -1.009694   -3.568749
H 0   -5.888845    1.583355   -4.314932
H 0   -6.470351    1.968124   -2.636841
H 0   -6.519551    0.255814   -3.245893
H 0   -3.450130    2.554631   -1.722203
H 0   -2.867114    2.168980   -3.399567
H 0   -4.413454    3.095930   -3.165117
H 0   -6.966853    3.555016    2.189071
H 0   -5.614627    3.489540    0.976889
H 0   -7.210778    2.704045    0.601825
H 0   -7.653430    1.492260    3.398072
H 0   -6.801562   -0.078938    3.069676
H 0   -7.895938    0.642628    1.809892
H 0   -3.999892    1.476191    2.883920
H 0   -4.850644    3.048257    3.211054
H 0   -5.352030    1.541636    4.096537
H 0   -4.851711   -0.815535    2.342994

