%chk=D:\My_Computer\Meh.chk
# opt b3lyp/6-31g geom=connectivity

Title Card Required

0 1
 H                 -4.75941540   -1.81628390    0.00000000
 I                 -3.12941540   -1.81628390    0.00000000

 1 2 1.0
 2

