# b3lyp/6-31g(d,p) geom=connectivity

Title Card Required

0 1
 C          0.92242567        -0.03351565        -0.09416048
 C          0.21236310         0.99939654        -0.58189382
 C         -1.24904199         1.12273203        -0.58105562
 C         -1.82820802         2.39406417        -0.50346010
 C         -3.21719944         2.54091494        -0.53179463
 C         -4.03661196         1.41804776        -0.63554519
 C         -3.47005610         0.14634739        -0.68024124
 C         -2.08307059        -0.00097693        -0.63108863
 C          0.40662611        -1.28551237         0.56734795
 C          0.82271758        -1.60017488         1.98607121
 C          1.66181075        -0.81537829         2.75513277
 C          1.81014502        -1.34151285         4.07109014
 S          2.67153214        -0.84972558         5.50591715
 C          2.05208369        -2.20757653         6.34815026
 C          1.23932913        -3.01680381         5.58667822
 C          1.10701904        -2.49697289         4.26350029
 S          0.24973798        -2.98334326         2.82638456
 H          2.00751404         0.02202301        -0.18086488
 H          0.74302869         1.82108064        -1.06144001
 H         -1.20250154         3.28126730        -0.43708248
 H         -3.65871766         3.53281601        -0.48264252
 H         -5.11629512         1.53364560        -0.67806046
 H         -4.10536810        -0.73179262        -0.75762918
 H         -1.65740824        -1.00107102        -0.65143308
 H         -0.68997113        -1.22885893         0.54657537
 H          0.66577036        -2.17237884        -0.01896459
 H          2.12768211         0.09850776         2.40588534
 H          2.32420165        -2.34757038         7.38500387
 H          0.76389867        -3.91821156         5.94777190

 2 3 2 10 1 19 1
 3 2 2 4 1 20 1
 4 3 1 5 1 9 2
 5 4 1 6 2 21 1
 6 5 2 7 1 22 1
 7 6 1 8 2 23 1
 8 7 2 9 1 24 1
 9 8 1 4 2 25 1
 10 2 1 11 1 26 1 27 1
 11 10 1 12 2 18 1
 12 11 2 13 1 28 1
 13 12 1 14 1 17 2
 14 13 1 15 1
 15 14 1 16 2 29 1
 16 15 2 17 1 30 1
 17 16 1 13 2 18 1
 18 17 1 11 1
 19 2 1
 20 3 1
 21 5 1
 22 6 1
 23 7 1
 24 8 1
 25 9 1
 26 10 1
 27 10 1
 28 12 1
 29 15 1
 30 16 1
